n_machines = 3;
n_resources = 6;
n_jobs = 30;
horizon = 1598;
LB = 532;
n_jobs_per_resource = [5, 5, 5, 5, 5, 5];
duration = [39, 89, 41, 59, 66, 9, 11, 18, 8, 54, 96, 48, 73, 50, 95, 42, 18, 65, 77, 62, 42, 89, 32, 45, 93, 72, 5, 53, 90, 57]